89
125
100	6
99	10
98	9
97	15
96	15
95	11
94	5
93	8
92	9
91	6
90	16
89	10
88	12
87	16
86	5
85	11
84	14
83	14
82	10
81	19
80	20
79	9
78	17
77	3
76	8
75	16
74	9
73	14
72	13
71	9
70	9
69	18
68	14
67	8
66	12
65	16
64	12
63	13
62	11
61	7
60	10
59	5
58	11
57	10
56	9
55	8
54	8
53	6
52	12
51	5
50	13
49	14
48	13
47	12
46	13
45	9
44	15
43	7
42	15
41	12
40	11
39	12
38	12
37	18
36	16
35	15
34	10
33	9
32	10
31	9
30	12
29	9
28	10
27	9
26	15
25	8
24	9
23	18
22	10
21	14
20	10
19	7
18	13
17	14
16	12
15	8
14	13
13	7
12	14
